celar_50_7_10_5_0.800000_9 100 52 278 228001
40 45 49 50 40 46 43 49 47 43 48 48 45 45 41 48 49 42 40 52 51 47 47 42 43 44 42 43 48 44 43 43 48 48 42 48 47 41 46 51 48 43 47 43 40 47 43 44 52 40 43 43 51 40 40 44 51 45 42 44 48 46 46 41 51 41 40 44 40 47 52 41 50 51 50 51 43 46 43 49 44 46 50 46 50 40 52 51 49 49 50 41 41 44 44 41 40 52 52 46
2 0 1 228001 43
0 15 0
1 16 0
2 17 0
3 20 0
4 23 0
5 24 0
6 25 0
7 27 0
10 28 0
11 29 0
12 30 0
13 31 0
14 0 0
14 32 0
15 33 0
16 1 0
16 34 0
17 2 0
17 35 0
18 5 0
18 38 0
19 6 0
20 8 0
20 41 0
21 9 0
21 42 0
22 10 0
22 43 0
23 44 0
24 11 0
25 12 0
27 13 0
28 15 0
29 16 0
30 17 0
31 18 0
32 19 0
33 20 0
34 21 0
35 22 0
36 25 0
37 26 0
38 27 0
2 2 3 228001 61
0 18 0
1 19 0
2 20 0
3 21 0
4 22 0
5 23 0
6 25 0
7 26 0
8 27 0
9 28 0
10 29 0
11 30 0
12 31 0
13 32 0
14 33 0
15 34 0
16 35 0
17 36 0
18 0 0
18 37 0
19 1 0
20 2 0
20 38 0
21 3 0
21 39 0
22 4 0
22 40 0
23 5 0
23 41 0
24 6 0
24 42 0
25 7 0
25 43 0
26 8 0
26 44 0
27 9 0
27 45 0
28 10 0
28 46 0
29 11 0
29 47 0
30 12 0
30 48 0
31 13 0
31 49 0
33 14 0
34 15 0
35 16 0
36 17 0
37 18 0
38 19 0
39 21 0
40 23 0
41 24 0
42 25 0
43 26 0
44 27 0
45 28 0
46 29 0
47 30 0
48 31 0
2 4 5 228001 46
0 19 0
1 20 0
2 21 0
3 22 0
4 23 0
5 25 0
7 27 0
9 31 0
11 32 0
12 0 0
12 34 0
13 1 0
13 35 0
14 2 0
14 36 0
15 3 0
15 37 0
16 4 0
16 38 0
17 5 0
17 39 0
18 6 0
18 40 0
19 7 0
19 41 0
20 8 0
20 42 0
21 12 0
21 44 0
22 13 0
22 45 0
23 14 0
24 15 0
25 16 0
26 17 0
27 19 0
28 20 0
29 22 0
30 23 0
31 24 0
32 25 0
33 26 0
35 27 0
36 28 0
38 29 0
39 30 0
2 6 7 228001 51
0 18 0
1 19 0
2 20 0
3 21 0
5 23 0
6 24 0
7 25 0
8 27 0
9 29 0
10 30 0
12 31 0
13 32 0
14 0 0
14 35 0
15 1 0
15 36 0
16 2 0
16 37 0
17 3 0
17 38 0
18 5 0
18 40 0
19 6 0
19 41 0
20 7 0
20 42 0
21 8 0
21 43 0
22 45 0
23 10 0
23 46 0
24 11 0
24 47 0
25 12 0
25 48 0
26 13 0
27 14 0
28 15 0
29 16 0
30 18 0
31 19 0
32 20 0
33 21 0
35 23 0
36 24 0
37 25 0
38 26 0
39 27 0
40 28 0
41 29 0
42 30 0
2 8 9 228001 51
0 17 0
1 18 0
2 19 0
3 20 0
4 21 0
6 22 0
7 23 0
8 25 0
9 26 0
10 27 0
11 28 0
12 29 0
13 30 0
14 31 0
15 32 0
16 33 0
17 34 0
18 35 0
19 1 0
19 36 0
20 2 0
21 3 0
22 4 0
22 37 0
24 5 0
24 38 0
25 6 0
26 7 0
26 39 0
27 8 0
27 40 0
28 9 0
28 41 0
29 10 0
29 42 0
30 11 0
31 12 0
32 13 0
33 14 0
34 15 0
35 17 0
36 19 0
37 20 0
38 21 0
40 22 0
41 23 0
42 24 0
43 25 0
44 26 0
45 27 0
46 28 0
2 10 11 228001 57
0 19 0
1 20 0
2 21 0
3 22 0
4 23 0
5 25 0
6 26 0
7 27 0
8 28 0
10 29 0
11 30 0
12 31 0
13 32 0
14 34 0
15 35 0
16 0 0
16 36 0
17 1 0
17 37 0
18 2 0
18 38 0
19 3 0
19 39 0
20 4 0
20 40 0
21 5 0
21 41 0
22 42 0
23 6 0
23 43 0
24 7 0
24 44 0
25 8 0
25 45 0
26 9 0
26 46 0
27 10 0
28 11 0
28 47 0
29 12 0
30 13 0
31 14 0
32 15 0
33 16 0
34 17 0
35 18 0
36 19 0
37 20 0
38 21 0
39 23 0
40 24 0
41 25 0
42 26 0
43 27 0
44 28 0
46 29 0
47 30 0
2 12 13 228001 49
0 18 0
1 19 0
2 21 0
3 22 0
4 23 0
5 24 0
6 25 0
8 26 0
9 27 0
11 28 0
12 29 0
15 30 0
16 31 0
17 0 0
17 32 0
18 1 0
18 33 0
19 2 0
19 34 0
20 3 0
20 35 0
21 5 0
21 37 0
22 6 0
22 38 0
23 7 0
23 39 0
24 8 0
25 9 0
25 40 0
26 10 0
26 41 0
27 11 0
27 42 0
28 43 0
29 12 0
30 14 0
31 15 0
32 16 0
33 18 0
34 19 0
35 20 0
36 21 0
37 22 0
38 23 0
39 24 0
41 26 0
42 27 0
44 28 0
2 14 15 228001 49
0 19 0
1 20 0
2 21 0
3 22 0
4 23 0
5 24 0
7 26 0
9 27 0
10 30 0
11 32 0
12 33 0
13 34 0
14 35 0
15 0 0
15 36 0
16 1 0
17 3 0
17 38 0
18 4 0
18 39 0
19 5 0
19 40 0
20 6 0
20 41 0
21 7 0
21 42 0
22 8 0
22 43 0
23 9 0
24 10 0
24 44 0
25 11 0
25 45 0
26 12 0
26 46 0
27 13 0
27 47 0
28 14 0
29 15 0
30 17 0
31 18 0
32 21 0
33 22 0
34 23 0
35 24 0
36 25 0
38 26 0
39 28 0
40 30 0
2 16 17 228001 49
0 15 0
2 16 0
3 17 0
4 18 0
5 19 0
6 20 0
7 21 0
8 22 0
11 23 0
12 24 0
14 25 0
15 26 0
16 27 0
18 28 0
19 0 0
19 29 0
20 1 0
20 30 0
21 2 0
21 33 0
22 3 0
23 4 0
23 34 0
24 35 0
25 5 0
25 36 0
26 6 0
26 37 0
27 7 0
27 38 0
28 8 0
28 39 0
29 9 0
29 40 0
30 41 0
31 10 0
32 11 0
33 12 0
34 14 0
35 15 0
37 16 0
38 17 0
39 18 0
40 19 0
41 20 0
42 21 0
43 22 0
46 23 0
47 24 0
2 18 19 228001 51
0 19 0
1 22 0
2 23 0
3 24 0
4 25 0
5 26 0
6 27 0
7 28 0
8 29 0
9 30 0
10 33 0
11 34 0
12 36 0
13 0 0
13 38 0
14 1 0
14 39 0
15 2 0
15 40 0
16 3 0
16 41 0
17 4 0
17 42 0
18 5 0
18 43 0
19 7 0
19 45 0
20 9 0
20 47 0
21 11 0
21 49 0
22 12 0
22 50 0
23 13 0
23 51 0
24 14 0
25 15 0
26 16 0
27 17 0
28 18 0
29 19 0
30 20 0
31 22 0
32 23 0
33 24 0
34 25 0
35 26 0
36 28 0
37 29 0
38 30 0
39 32 0
2 20 21 228001 58
0 18 0
1 19 0
2 20 0
3 21 0
4 22 0
6 23 0
8 25 0
9 26 0
10 27 0
11 28 0
12 29 0
13 30 0
14 31 0
15 32 0
16 33 0
17 34 0
18 0 0
18 35 0
19 1 0
19 36 0
20 2 0
20 37 0
21 3 0
21 38 0
22 4 0
22 39 0
23 5 0
23 40 0
24 6 0
24 41 0
26 7 0
27 8 0
27 42 0
28 9 0
28 43 0
29 10 0
29 44 0
30 11 0
30 45 0
31 12 0
31 46 0
32 13 0
33 14 0
34 15 0
35 16 0
36 17 0
37 18 0
38 19 0
39 20 0
40 21 0
41 22 0
43 23 0
45 24 0
46 25 0
47 26 0
48 27 0
49 28 0
50 29 0
2 22 23 228001 47
1 18 0
2 19 0
3 20 0
4 21 0
5 22 0
7 23 0
8 24 0
9 26 0
11 27 0
12 28 0
14 29 0
17 0 0
17 30 0
18 2 0
18 32 0
19 3 0
19 33 0
20 4 0
20 34 0
21 5 0
21 35 0
22 6 0
22 36 0
23 7 0
24 8 0
24 37 0
25 9 0
25 38 0
26 10 0
27 11 0
27 39 0
28 12 0
28 40 0
30 14 0
31 15 0
32 16 0
34 17 0
35 18 0
36 19 0
37 20 0
38 21 0
39 22 0
41 23 0
42 24 0
43 25 0
44 26 0
46 27 0
2 24 25 228001 48
0 15 0
1 16 0
2 17 0
3 18 0
4 19 0
5 20 0
6 21 0
8 22 0
9 23 0
10 24 0
11 26 0
12 27 0
13 28 0
14 29 0
15 31 0
16 32 0
17 0 0
17 33 0
18 1 0
18 34 0
19 3 0
20 4 0
20 36 0
21 5 0
21 37 0
22 6 0
22 38 0
23 7 0
23 39 0
24 41 0
25 9 0
25 42 0
26 43 0
27 10 0
29 11 0
30 12 0
31 15 0
32 16 0
33 17 0
34 18 0
35 19 0
36 20 0
37 21 0
38 22 0
39 23 0
40 24 0
41 25 0
42 27 0
2 26 27 228001 44
0 17 0
1 19 0
2 20 0
3 21 0
5 24 0
7 25 0
9 26 0
10 28 0
11 29 0
12 30 0
13 31 0
14 32 0
15 0 0
16 33 0
17 1 0
18 2 0
18 34 0
19 4 0
20 5 0
20 36 0
21 6 0
21 37 0
22 7 0
22 38 0
23 8 0
23 39 0
24 9 0
24 40 0
25 10 0
25 41 0
26 11 0
26 42 0
27 12 0
28 13 0
29 15 0
30 16 0
31 17 0
32 18 0
33 19 0
34 20 0
35 21 0
36 22 0
38 24 0
41 26 0
2 28 29 228001 50
0 18 0
1 19 0
2 20 0
3 21 0
4 22 0
7 23 0
9 24 0
10 25 0
11 26 0
12 28 0
13 29 0
14 30 0
15 31 0
16 32 0
17 33 0
18 0 0
19 1 0
19 34 0
20 35 0
21 2 0
22 3 0
23 4 0
23 36 0
24 5 0
24 37 0
25 6 0
26 7 0
26 38 0
27 8 0
27 39 0
28 9 0
28 40 0
29 10 0
29 41 0
30 12 0
30 43 0
31 13 0
32 14 0
33 15 0
34 18 0
35 19 0
36 20 0
37 21 0
38 22 0
41 23 0
43 24 0
44 25 0
45 26 0
46 27 0
47 28 0
2 30 31 228001 41
1 16 0
2 17 0
3 18 0
4 20 0
5 21 0
6 22 0
8 23 0
10 24 0
12 25 0
13 26 0
15 27 0
16 28 0
17 0 0
17 29 0
18 1 0
18 30 0
19 31 0
20 2 0
20 32 0
21 4 0
21 34 0
22 5 0
22 35 0
23 6 0
23 36 0
24 7 0
24 37 0
25 38 0
26 9 0
26 40 0
27 12 0
28 13 0
30 14 0
31 15 0
33 17 0
34 18 0
35 19 0
36 20 0
37 21 0
38 22 0
40 23 0
2 32 33 228001 55
0 17 0
1 18 0
2 19 0
3 20 0
4 21 0
5 22 0
6 23 0
7 24 0
8 25 0
9 26 0
10 27 0
11 28 0
13 29 0
14 30 0
15 31 0
16 32 0
17 33 0
18 34 0
19 0 0
19 35 0
20 2 0
21 3 0
21 37 0
22 39 0
23 5 0
23 40 0
24 6 0
24 41 0
25 7 0
25 42 0
26 8 0
26 43 0
27 44 0
28 9 0
28 45 0
29 10 0
29 46 0
30 11 0
30 47 0
31 12 0
32 13 0
33 14 0
34 15 0
35 16 0
36 17 0
37 18 0
38 19 0
39 20 0
40 21 0
41 22 0
42 23 0
43 24 0
44 26 0
45 28 0
47 29 0
2 34 35 228001 51
0 16 0
1 17 0
2 19 0
3 20 0
4 21 0
5 23 0
6 24 0
7 25 0
8 27 0
9 29 0
10 30 0
11 31 0
12 33 0
13 0 0
13 35 0
14 1 0
15 2 0
15 36 0
16 4 0
16 38 0
17 39 0
18 5 0
18 40 0
19 6 0
19 41 0
20 7 0
20 42 0
21 8 0
21 43 0
22 44 0
23 45 0
24 9 0
24 46 0
25 10 0
25 47 0
26 11 0
27 12 0
28 13 0
29 14 0
30 15 0
31 16 0
32 18 0
33 19 0
34 20 0
35 21 0
36 22 0
37 23 0
38 25 0
39 26 0
40 28 0
41 29 0
2 36 37 228001 49
0 17 0
1 18 0
3 19 0
4 20 0
6 21 0
7 23 0
8 24 0
9 25 0
10 26 0
11 27 0
12 28 0
13 30 0
16 31 0
17 0 0
17 32 0
18 1 0
18 33 0
19 2 0
19 34 0
20 3 0
20 35 0
21 4 0
21 36 0
22 5 0
22 37 0
24 6 0
25 7 0
26 8 0
26 38 0
27 9 0
27 39 0
28 10 0
29 11 0
29 40 0
30 12 0
31 13 0
32 14 0
33 15 0
34 16 0
35 17 0
36 18 0
38 19 0
39 20 0
41 21 0
42 22 0
43 23 0
44 25 0
45 26 0
46 28 0
2 38 39 228001 58
0 19 0
1 21 0
2 22 0
3 23 0
4 24 0
5 25 0
6 26 0
7 27 0
8 28 0
9 29 0
10 30 0
11 32 0
12 33 0
13 34 0
14 35 0
15 37 0
16 0 0
16 38 0
17 1 0
17 39 0
18 2 0
18 40 0
19 3 0
19 41 0
20 4 0
20 42 0
21 5 0
21 43 0
22 6 0
22 44 0
23 8 0
23 46 0
24 9 0
25 10 0
25 47 0
26 11 0
26 48 0
27 12 0
27 49 0
28 13 0
28 50 0
29 14 0
30 15 0
31 16 0
32 17 0
33 18 0
34 19 0
35 20 0
36 22 0
37 23 0
38 24 0
39 25 0
40 26 0
41 27 0
42 28 0
43 30 0
44 31 0
45 32 0
2 40 41 228001 47
0 14 0
3 15 0
4 16 0
5 17 0
6 18 0
7 19 0
9 20 0
10 21 0
11 22 0
13 23 0
14 24 0
15 25 0
16 26 0
17 27 0
18 28 0
19 29 0
20 30 0
21 0 0
21 32 0
22 1 0
22 33 0
23 2 0
23 34 0
24 3 0
24 35 0
25 5 0
25 37 0
26 7 0
26 39 0
27 8 0
27 40 0
28 41 0
29 9 0
29 42 0
31 10 0
32 11 0
33 12 0
34 13 0
37 15 0
38 16 0
39 17 0
40 18 0
41 19 0
43 20 0
44 21 0
45 22 0
47 23 0
2 42 43 228001 51
1 18 0
2 19 0
3 20 0
4 21 0
5 22 0
7 23 0
8 25 0
9 26 0
10 27 0
11 28 0
12 29 0
14 30 0
15 31 0
16 0 0
17 1 0
17 32 0
18 33 0
19 3 0
19 34 0
20 4 0
20 35 0
21 5 0
22 6 0
22 36 0
23 7 0
23 37 0
24 8 0
24 38 0
25 9 0
25 39 0
26 10 0
26 40 0
27 11 0
27 41 0
28 12 0
28 42 0
29 13 0
30 14 0
31 15 0
32 16 0
34 17 0
35 18 0
36 19 0
37 20 0
38 21 0
39 22 0
41 23 0
43 24 0
44 25 0
45 26 0
46 27 0
2 44 45 228001 46
0 19 0
1 20 0
2 21 0
3 23 0
6 24 0
7 27 0
8 28 0
10 29 0
11 30 0
12 31 0
13 32 0
14 0 0
14 33 0
15 1 0
15 34 0
16 2 0
16 35 0
17 3 0
17 36 0
18 4 0
18 37 0
19 5 0
19 38 0
20 6 0
20 39 0
21 7 0
21 40 0
22 9 0
22 42 0
23 10 0
23 43 0
24 11 0
24 44 0
25 12 0
25 45 0
26 13 0
26 46 0
27 14 0
28 16 0
29 17 0
30 18 0
31 19 0
32 20 0
33 21 0
34 23 0
38 27 0
2 46 47 228001 47
0 19 0
1 20 0
3 21 0
4 22 0
5 23 0
6 24 0
7 25 0
9 28 0
11 29 0
12 30 0
13 32 0
14 33 0
15 1 0
15 34 0
16 2 0
16 35 0
17 3 0
18 4 0
18 36 0
19 5 0
19 37 0
20 6 0
20 38 0
21 7 0
22 8 0
22 39 0
23 40 0
24 9 0
25 10 0
25 41 0
26 11 0
26 42 0
27 12 0
27 43 0
28 13 0
29 16 0
30 17 0
31 18 0
32 19 0
33 20 0
34 21 0
35 23 0
36 24 0
37 25 0
38 26 0
40 27 0
41 28 0
2 48 49 228001 50
0 14 0
2 15 0
3 16 0
4 17 0
7 18 0
8 19 0
9 20 0
10 21 0
11 22 0
13 23 0
14 24 0
15 25 0
16 26 0
17 27 0
19 0 0
19 28 0
21 1 0
21 29 0
22 2 0
22 30 0
23 31 0
24 3 0
24 32 0
25 4 0
25 33 0
26 34 0
27 5 0
28 6 0
28 35 0
29 7 0
29 36 0
30 8 0
30 37 0
31 9 0
31 38 0
32 10 0
32 39 0
33 11 0
34 12 0
37 13 0
38 14 0
40 15 0
41 16 0
42 17 0
45 18 0
46 19 0
47 20 0
48 21 0
49 22 0
51 23 0
2 50 51 228001 45
0 17 0
1 18 0
2 19 0
5 20 0
8 21 0
9 22 0
10 24 0
11 25 0
12 27 0
14 29 0
15 31 0
16 0 0
16 32 0
17 1 0
18 2 0
18 33 0
19 3 0
19 34 0
20 4 0
21 5 0
21 35 0
22 7 0
22 37 0
23 8 0
23 38 0
24 9 0
24 39 0
25 10 0
25 40 0
26 11 0
26 41 0
27 42 0
28 12 0
29 13 0
30 14 0
31 15 0
32 16 0
33 17 0
34 18 0
35 19 0
38 21 0
39 22 0
40 24 0
41 25 0
42 26 0
2 52 53 228001 49
1 15 0
2 16 0
3 17 0
5 18 0
6 19 0
7 20 0
9 21 0
11 22 0
12 23 0
13 24 0
14 25 0
15 26 0
16 27 0
17 28 0
19 29 0
20 0 0
21 1 0
21 30 0
22 31 0
23 2 0
23 32 0
24 33 0
25 34 0
26 3 0
26 35 0
27 4 0
27 36 0
28 5 0
28 37 0
29 6 0
29 38 0
30 7 0
31 8 0
32 9 0
32 39 0
33 10 0
34 11 0
35 12 0
36 13 0
37 14 0
39 15 0
40 17 0
42 18 0
43 19 0
44 20 0
46 21 0
48 22 0
49 23 0
50 24 0
2 54 55 228001 44
0 14 0
2 17 0
3 18 0
4 19 0
5 20 0
6 22 0
7 23 0
9 24 0
10 25 0
11 28 0
12 29 0
13 30 0
14 0 0
14 31 0
15 1 0
15 32 0
16 2 0
16 33 0
17 3 0
17 34 0
19 4 0
19 36 0
20 5 0
20 37 0
21 7 0
21 39 0
22 8 0
22 40 0
23 41 0
24 42 0
25 9 0
25 43 0
26 10 0
27 12 0
28 13 0
30 14 0
31 15 0
32 16 0
33 17 0
34 18 0
35 20 0
36 21 0
38 24 0
39 25 0
2 56 57 228001 56
0 15 0
1 16 0
2 17 0
3 18 0
5 19 0
6 20 0
7 21 0
9 22 0
10 23 0
11 24 0
12 25 0
13 26 0
14 27 0
15 28 0
16 29 0
17 30 0
18 31 0
19 0 0
19 32 0
20 1 0
20 33 0
21 2 0
21 34 0
22 3 0
22 35 0
23 36 0
24 37 0
25 4 0
26 5 0
26 38 0
27 6 0
27 39 0
28 7 0
28 40 0
29 8 0
29 41 0
30 9 0
30 42 0
31 10 0
31 43 0
32 11 0
32 44 0
35 12 0
36 13 0
37 14 0
38 15 0
39 16 0
40 18 0
42 19 0
43 20 0
44 21 0
46 22 0
47 23 0
48 24 0
49 25 0
50 26 0
2 58 59 228001 47
0 15 0
1 16 0
2 18 0
3 19 0
4 20 0
5 21 0
6 22 0
7 23 0
8 24 0
9 26 0
10 27 0
11 28 0
13 30 0
14 32 0
15 0 0
15 33 0
16 1 0
16 34 0
17 35 0
18 2 0
19 3 0
19 36 0
20 37 0
21 38 0
22 4 0
22 39 0
23 5 0
24 40 0
25 6 0
25 41 0
26 8 0
27 9 0
27 43 0
28 10 0
29 11 0
30 12 0
31 14 0
32 15 0
33 16 0
34 17 0
35 19 0
36 21 0
37 22 0
38 23 0
39 25 0
40 27 0
41 28 0
2 60 61 228001 53
0 18 0
1 19 0
2 20 0
3 21 0
4 22 0
5 23 0
8 25 0
9 26 0
10 27 0
11 28 0
12 29 0
13 30 0
14 31 0
15 32 0
17 0 0
17 34 0
18 1 0
18 35 0
19 2 0
20 36 0
21 3 0
21 37 0
22 4 0
22 38 0
23 5 0
23 39 0
24 6 0
24 40 0
25 7 0
25 41 0
26 8 0
27 9 0
27 42 0
28 11 0
28 44 0
29 12 0
29 45 0
30 13 0
31 14 0
32 15 0
33 16 0
34 17 0
35 18 0
36 19 0
37 20 0
38 21 0
39 22 0
40 23 0
43 24 0
44 25 0
45 26 0
46 28 0
47 29 0
2 62 63 228001 47
0 13 0
1 14 0
2 15 0
3 16 0
4 17 0
5 18 0
6 19 0
8 20 0
9 21 0
10 22 0
11 23 0
12 24 0
13 25 0
14 26 0
16 27 0
17 29 0
18 0 0
18 31 0
19 1 0
19 32 0
21 2 0
21 33 0
22 3 0
22 34 0
23 4 0
23 35 0
24 5 0
24 36 0
25 37 0
26 6 0
27 7 0
28 8 0
28 38 0
29 10 0
29 40 0
31 11 0
34 12 0
35 13 0
36 14 0
37 16 0
38 18 0
39 19 0
41 20 0
42 21 0
43 23 0
44 24 0
45 25 0
2 64 65 228001 49
2 16 0
5 18 0
6 19 0
7 20 0
8 21 0
9 22 0
10 23 0
12 24 0
13 25 0
14 26 0
15 27 0
16 28 0
17 29 0
18 0 0
18 30 0
19 1 0
19 31 0
20 2 0
20 32 0
21 3 0
21 33 0
22 4 0
22 34 0
23 35 0
24 5 0
24 36 0
25 6 0
26 7 0
27 8 0
28 9 0
28 37 0
29 38 0
30 10 0
30 39 0
31 11 0
31 40 0
32 12 0
33 13 0
34 14 0
36 15 0
39 16 0
41 17 0
43 18 0
44 19 0
45 20 0
46 21 0
47 22 0
48 23 0
50 24 0
2 66 67 228001 40
0 16 0
1 17 0
5 18 0
6 19 0
7 20 0
8 21 0
9 23 0
10 24 0
11 25 0
12 26 0
13 27 0
14 28 0
15 29 0
16 30 0
17 0 0
17 31 0
18 1 0
18 32 0
19 4 0
19 35 0
20 5 0
20 36 0
21 6 0
21 37 0
22 7 0
22 39 0
23 10 0
23 41 0
24 43 0
25 12 0
26 14 0
27 15 0
28 16 0
29 17 0
33 18 0
34 19 0
35 20 0
36 21 0
37 22 0
39 23 0
2 68 69 228001 46
0 17 0
1 18 0
2 20 0
3 21 0
4 22 0
6 23 0
7 24 0
8 25 0
10 26 0
11 27 0
12 28 0
13 29 0
14 30 0
15 31 0
16 32 0
17 33 0
18 0 0
18 34 0
19 1 0
19 35 0
20 2 0
20 36 0
21 3 0
21 37 0
22 5 0
22 38 0
23 6 0
23 39 0
24 8 0
24 41 0
25 10 0
25 43 0
26 11 0
26 45 0
27 46 0
28 12 0
29 13 0
30 14 0
31 15 0
32 16 0
33 21 0
34 22 0
36 25 0
37 26 0
38 27 0
39 28 0
2 70 71 228001 49
0 18 0
3 19 0
4 20 0
5 21 0
9 22 0
11 23 0
12 24 0
13 25 0
15 26 0
16 27 0
17 28 0
18 29 0
19 0 0
19 30 0
20 1 0
20 31 0
21 2 0
21 32 0
22 3 0
22 33 0
23 4 0
23 34 0
24 5 0
24 35 0
25 6 0
25 36 0
26 7 0
26 37 0
27 8 0
28 9 0
28 38 0
29 10 0
30 11 0
31 12 0
31 39 0
32 13 0
32 40 0
33 14 0
34 15 0
35 16 0
37 17 0
38 18 0
41 19 0
42 20 0
43 21 0
47 22 0
49 23 0
50 24 0
51 25 0
2 72 73 228001 63
0 18 0
1 19 0
2 20 0
3 21 0
4 22 0
5 23 0
6 24 0
7 25 0
8 26 0
9 27 0
10 28 0
11 29 0
12 30 0
13 31 0
14 33 0
15 34 0
16 35 0
17 36 0
18 0 0
18 37 0
19 1 0
19 38 0
20 39 0
21 2 0
21 40 0
22 3 0
22 41 0
23 4 0
23 42 0
24 5 0
24 43 0
25 6 0
25 44 0
26 7 0
26 45 0
27 8 0
27 46 0
28 9 0
28 47 0
29 10 0
29 48 0
30 11 0
30 49 0
31 12 0
31 50 0
32 14 0
33 15 0
34 16 0
35 17 0
36 18 0
37 19 0
38 20 0
39 21 0
40 22 0
41 23 0
42 24 0
43 25 0
44 26 0
45 27 0
46 28 0
47 29 0
48 30 0
49 31 0
2 74 75 228001 62
0 19 0
1 20 0
2 21 0
3 22 0
5 23 0
6 24 0
7 25 0
8 26 0
9 27 0
10 28 0
11 29 0
12 30 0
13 31 0
14 32 0
15 33 0
16 34 0
17 35 0
18 36 0
19 0 0
19 37 0
20 1 0
20 38 0
21 2 0
21 39 0
22 3 0
22 40 0
23 4 0
23 41 0
24 5 0
24 42 0
25 6 0
25 43 0
26 7 0
26 44 0
27 8 0
27 45 0
28 9 0
28 46 0
29 10 0
29 47 0
30 11 0
30 48 0
31 12 0
31 49 0
32 13 0
32 50 0
33 14 0
34 15 0
35 16 0
36 17 0
37 18 0
38 20 0
39 21 0
40 22 0
42 24 0
43 25 0
44 26 0
45 27 0
46 28 0
47 29 0
48 30 0
49 31 0
2 76 77 228001 51
0 15 0
1 16 0
2 19 0
3 20 0
4 21 0
5 22 0
6 23 0
7 25 0
8 26 0
9 27 0
10 28 0
11 30 0
12 31 0
13 32 0
14 0 0
14 33 0
15 1 0
15 34 0
16 2 0
16 35 0
17 36 0
18 3 0
18 37 0
20 38 0
21 4 0
21 39 0
22 6 0
22 41 0
23 7 0
23 42 0
24 8 0
24 43 0
25 9 0
25 44 0
26 10 0
26 45 0
27 11 0
29 12 0
30 14 0
31 15 0
32 16 0
33 17 0
34 18 0
35 21 0
36 22 0
37 23 0
38 24 0
39 25 0
40 26 0
41 27 0
42 28 0
2 78 79 228001 48
0 19 0
1 21 0
2 22 0
3 23 0
5 24 0
6 25 0
7 27 0
8 28 0
9 29 0
10 30 0
11 31 0
12 32 0
13 33 0
14 34 0
15 35 0
16 36 0
17 0 0
17 37 0
18 3 0
18 40 0
19 6 0
19 43 0
20 7 0
20 44 0
21 8 0
21 45 0
22 9 0
22 46 0
23 10 0
24 11 0
24 47 0
25 13 0
26 14 0
27 15 0
28 17 0
29 18 0
30 19 0
31 20 0
32 21 0
33 22 0
34 23 0
36 24 0
37 25 0
38 26 0
39 27 0
40 28 0
41 29 0
42 30 0
2 80 81 228001 50
0 17 0
1 19 0
2 20 0
4 22 0
5 23 0
6 24 0
7 25 0
8 26 0
9 27 0
10 28 0
11 29 0
12 31 0
13 32 0
14 33 0
15 34 0
16 0 0
16 35 0
17 1 0
17 36 0
18 2 0
18 37 0
19 38 0
20 3 0
20 39 0
21 4 0
21 40 0
22 5 0
22 41 0
23 8 0
23 44 0
24 9 0
24 45 0
25 10 0
26 11 0
27 12 0
28 13 0
29 14 0
30 15 0
31 16 0
33 17 0
34 18 0
35 19 0
36 21 0
37 22 0
38 23 0
39 24 0
40 25 0
41 26 0
42 27 0
43 29 0
2 82 83 228001 58
0 17 0
1 18 0
2 19 0
3 20 0
4 21 0
5 22 0
6 23 0
7 24 0
8 25 0
9 26 0
10 27 0
11 28 0
12 29 0
13 30 0
14 31 0
15 32 0
16 33 0
18 34 0
19 0 0
19 35 0
20 1 0
20 36 0
21 2 0
21 37 0
22 3 0
22 38 0
23 4 0
23 39 0
24 5 0
24 40 0
25 6 0
25 41 0
26 7 0
26 42 0
27 8 0
27 43 0
28 9 0
29 44 0
31 10 0
31 45 0
32 11 0
33 12 0
34 13 0
35 14 0
36 16 0
37 17 0
38 18 0
39 19 0
40 20 0
41 21 0
42 22 0
43 23 0
44 24 0
45 25 0
46 26 0
47 27 0
48 29 0
49 30 0
2 84 85 228001 50
0 15 0
1 16 0
2 17 0
3 18 0
4 19 0
5 20 0
7 21 0
8 22 0
9 23 0
10 24 0
11 25 0
15 26 0
16 27 0
18 0 0
18 28 0
19 1 0
19 29 0
20 2 0
20 30 0
21 3 0
21 31 0
22 4 0
22 32 0
23 5 0
23 33 0
24 6 0
24 34 0
25 7 0
25 35 0
26 8 0
27 36 0
28 37 0
29 9 0
30 10 0
30 38 0
31 11 0
31 39 0
32 12 0
33 13 0
36 14 0
37 15 0
38 16 0
39 17 0
40 18 0
41 19 0
42 20 0
44 22 0
46 23 0
47 24 0
48 25 0
2 86 87 228001 65
0 18 0
1 19 0
2 20 0
3 21 0
4 22 0
5 23 0
6 24 0
7 25 0
8 26 0
9 27 0
10 28 0
11 29 0
12 30 0
13 31 0
14 32 0
15 33 0
16 34 0
17 35 0
18 36 0
19 0 0
19 37 0
20 1 0
20 38 0
21 39 0
22 2 0
22 40 0
23 3 0
23 41 0
24 4 0
24 42 0
25 5 0
25 43 0
26 6 0
26 44 0
27 7 0
27 45 0
28 8 0
28 46 0
29 9 0
29 47 0
30 10 0
30 48 0
31 11 0
31 49 0
32 12 0
32 50 0
33 13 0
34 14 0
35 15 0
36 16 0
37 17 0
38 18 0
39 19 0
40 20 0
41 21 0
42 22 0
43 23 0
44 24 0
45 25 0
46 26 0
47 27 0
48 28 0
49 29 0
50 30 0
51 31 0
2 88 89 228001 57
0 19 0
1 20 0
2 21 0
3 22 0
4 23 0
5 24 0
6 25 0
7 26 0
8 27 0
9 28 0
10 29 0
11 30 0
13 31 0
14 32 0
15 33 0
16 34 0
17 35 0
18 0 0
18 36 0
19 37 0
20 1 0
20 38 0
21 2 0
22 4 0
22 40 0
23 5 0
23 41 0
24 6 0
24 42 0
25 7 0
25 43 0
26 9 0
26 45 0
27 10 0
27 46 0
28 11 0
28 47 0
29 12 0
29 48 0
30 13 0
31 14 0
32 15 0
33 16 0
34 17 0
35 18 0
36 19 0
37 20 0
38 21 0
39 22 0
40 23 0
41 24 0
42 25 0
43 26 0
44 27 0
45 28 0
46 29 0
47 30 0
2 90 91 228001 47
0 17 0
1 18 0
4 19 0
5 20 0
6 21 0
8 22 0
12 24 0
13 25 0
14 26 0
15 27 0
16 28 0
17 29 0
18 0 0
19 1 0
19 30 0
20 2 0
20 31 0
21 3 0
21 32 0
22 4 0
22 33 0
23 34 0
24 5 0
24 35 0
25 36 0
26 6 0
26 37 0
27 7 0
27 38 0
28 8 0
28 39 0
29 9 0
30 10 0
30 40 0
31 11 0
32 12 0
33 13 0
34 14 0
35 15 0
36 16 0
37 17 0
38 18 0
41 19 0
42 20 0
43 21 0
47 23 0
49 24 0
2 92 93 228001 44
0 17 0
1 18 0
2 19 0
3 20 0
4 21 0
6 22 0
7 24 0
8 25 0
9 26 0
10 27 0
11 28 0
12 29 0
15 31 0
16 32 0
17 0 0
17 33 0
18 1 0
18 35 0
19 2 0
19 36 0
20 4 0
20 37 0
21 5 0
21 38 0
22 8 0
22 41 0
23 10 0
23 43 0
24 11 0
25 12 0
26 13 0
27 14 0
28 16 0
29 17 0
30 19 0
31 20 0
32 21 0
34 22 0
35 23 0
36 24 0
37 25 0
38 26 0
39 28 0
40 29 0
2 94 95 228001 41
2 16 0
3 17 0
4 18 0
5 19 0
7 20 0
9 21 0
10 22 0
11 23 0
12 24 0
13 25 0
14 26 0
15 27 0
17 28 0
18 0 0
18 29 0
19 30 0
20 1 0
20 31 0
21 2 0
21 32 0
22 4 0
22 34 0
23 5 0
23 35 0
24 6 0
24 36 0
25 7 0
25 37 0
26 38 0
27 8 0
28 9 0
29 39 0
30 11 0
31 12 0
33 13 0
34 14 0
37 16 0
38 17 0
39 18 0
42 23 0
43 24 0
2 96 97 228001 51
0 20 0
1 21 0
2 22 0
3 23 0
4 24 0
5 25 0
6 26 0
7 27 0
8 28 0
9 29 0
10 30 0
11 31 0
12 33 0
13 36 0
14 37 0
15 0 0
15 38 0
16 1 0
16 39 0
17 2 0
17 40 0
18 3 0
18 41 0
19 6 0
19 44 0
20 7 0
20 45 0
21 8 0
21 46 0
22 9 0
22 47 0
23 11 0
23 49 0
24 12 0
24 50 0
25 13 0
25 51 0
26 14 0
27 15 0
28 16 0
29 17 0
30 18 0
31 20 0
32 21 0
33 22 0
34 23 0
35 26 0
36 29 0
37 30 0
38 31 0
39 32 0
2 98 99 228001 56
0 19 0
1 20 0
3 21 0
4 22 0
5 23 0
7 24 0
8 25 0
9 26 0
10 27 0
12 28 0
14 29 0
17 30 0
18 31 0
19 0 0
19 32 0
20 1 0
20 33 0
21 2 0
21 34 0
22 3 0
22 35 0
23 4 0
23 36 0
24 5 0
24 37 0
25 6 0
25 38 0
26 7 0
26 39 0
27 8 0
27 40 0
28 9 0
28 41 0
29 10 0
29 42 0
30 11 0
30 43 0
31 12 0
31 44 0
32 13 0
32 45 0
33 14 0
34 15 0
35 16 0
36 17 0
37 18 0
38 19 0
39 20 0
41 21 0
42 22 0
43 23 0
45 24 0
46 25 0
47 26 0
48 27 0
50 28 0
2 0 74 1000 0
2 0 92 1000 0
2 2 66 1000 0
2 2 52 1000 0
2 2 24 1000 0
2 2 92 1000 0
2 4 34 1000 0
2 4 52 1000 0
2 4 24 1000 0
2 4 68 1000 0
2 4 88 1000 0
2 4 26 1000 0
2 6 60 1000 0
2 8 84 1000 0
2 10 50 1000 0
2 10 32 1000 0
2 12 44 1000 0
2 12 14 1000 0
2 16 72 1000 0
2 18 94 1000 0
2 20 64 1000 0
2 20 78 1000 0
2 20 24 1000 0
2 20 26 1000 0
2 22 38 1000 0
2 24 30 1000 0
2 24 52 1000 0
2 24 60 1000 0
2 32 80 1000 0
2 32 38 1000 0
2 32 86 1000 0
2 32 92 1000 0
2 36 60 1000 0
2 38 40 1000 0
2 38 86 1000 0
2 42 72 1000 0
2 42 82 1000 0
2 46 84 1000 0
2 48 64 1000 0
2 50 90 1000 0
2 54 58 1000 0
2 54 62 1000 0
2 56 74 1000 0
2 56 94 1000 0
2 60 72 1000 0
2 68 84 1000 0
2 68 92 1000 0
2 74 92 1000 0
2 74 94 1000 0
2 84 88 1000 0
2 88 98 1000 0
2 90 96 1000 0
2 0 75 1000 0
2 0 93 1000 0
2 2 67 1000 0
2 2 53 1000 0
2 2 25 1000 0
2 2 93 1000 0
2 4 35 1000 0
2 4 53 1000 0
2 4 25 1000 0
2 4 69 1000 0
2 4 89 1000 0
2 4 27 1000 0
2 6 61 1000 0
2 8 85 1000 0
2 10 51 1000 0
2 10 33 1000 0
2 12 45 1000 0
2 12 15 1000 0
2 16 73 1000 0
2 18 95 1000 0
2 20 65 1000 0
2 20 79 1000 0
2 20 25 1000 0
2 20 27 1000 0
2 22 39 1000 0
2 24 31 1000 0
2 24 53 1000 0
2 24 61 1000 0
2 32 81 1000 0
2 32 39 1000 0
2 32 87 1000 0
2 32 93 1000 0
2 36 61 1000 0
2 38 41 1000 0
2 38 87 1000 0
2 42 73 1000 0
2 42 83 1000 0
2 46 85 1000 0
2 48 65 1000 0
2 50 91 1000 0
2 54 59 1000 0
2 54 63 1000 0
2 56 75 1000 0
2 56 95 1000 0
2 60 73 1000 0
2 68 85 1000 0
2 68 93 1000 0
2 74 93 1000 0
2 74 95 1000 0
2 84 89 1000 0
2 88 99 1000 0
2 90 97 1000 0
2 1 74 1000 0
2 1 92 1000 0
2 3 66 1000 0
2 3 52 1000 0
2 3 24 1000 0
2 3 92 1000 0
2 5 34 1000 0
2 5 52 1000 0
2 5 24 1000 0
2 5 68 1000 0
2 5 88 1000 0
2 5 26 1000 0
2 7 60 1000 0
2 9 84 1000 0
2 11 50 1000 0
2 11 32 1000 0
2 13 44 1000 0
2 13 14 1000 0
2 17 72 1000 0
2 19 94 1000 0
2 21 64 1000 0
2 21 78 1000 0
2 21 24 1000 0
2 21 26 1000 0
2 23 38 1000 0
2 25 30 1000 0
2 25 52 1000 0
2 25 60 1000 0
2 33 80 1000 0
2 33 38 1000 0
2 33 86 1000 0
2 33 92 1000 0
2 37 60 1000 0
2 39 40 1000 0
2 39 86 1000 0
2 43 72 1000 0
2 43 82 1000 0
2 47 84 1000 0
2 49 64 1000 0
2 51 90 1000 0
2 55 58 1000 0
2 55 62 1000 0
2 57 74 1000 0
2 57 94 1000 0
2 61 72 1000 0
2 69 84 1000 0
2 69 92 1000 0
2 75 92 1000 0
2 75 94 1000 0
2 85 88 1000 0
2 89 98 1000 0
2 91 96 1000 0
2 1 75 1000 0
2 1 93 1000 0
2 3 67 1000 0
2 3 53 1000 0
2 3 25 1000 0
2 3 93 1000 0
2 5 35 1000 0
2 5 53 1000 0
2 5 25 1000 0
2 5 69 1000 0
2 5 89 1000 0
2 5 27 1000 0
2 7 61 1000 0
2 9 85 1000 0
2 11 51 1000 0
2 11 33 1000 0
2 13 45 1000 0
2 13 15 1000 0
2 17 73 1000 0
2 19 95 1000 0
2 21 65 1000 0
2 21 79 1000 0
2 21 25 1000 0
2 21 27 1000 0
2 23 39 1000 0
2 25 31 1000 0
2 25 53 1000 0
2 25 61 1000 0
2 33 81 1000 0
2 33 39 1000 0
2 33 87 1000 0
2 33 93 1000 0
2 37 61 1000 0
2 39 41 1000 0
2 39 87 1000 0
2 43 73 1000 0
2 43 83 1000 0
2 47 85 1000 0
2 49 65 1000 0
2 51 91 1000 0
2 55 59 1000 0
2 55 63 1000 0
2 57 75 1000 0
2 57 95 1000 0
2 61 73 1000 0
2 69 85 1000 0
2 69 93 1000 0
2 75 93 1000 0
2 75 95 1000 0
2 85 89 1000 0
2 89 99 1000 0
2 91 97 1000 0
2 0 89 1000 37
0 0 0
2 1 0
3 4 0
4 7 0
5 8 0
6 9 0
7 11 0
8 12 0
9 13 0
10 14 0
11 15 0
12 16 0
13 17 0
14 18 0
15 19 0
16 20 0
17 21 0
18 24 0
19 25 0
20 28 0
21 29 0
22 30 0
24 31 0
25 32 0
26 33 0
27 34 0
28 36 0
29 37 0
30 38 0
32 39 0
33 40 0
34 41 0
35 42 0
36 45 0
37 46 0
38 47 0
39 48 0
2 10 71 1000 37
0 1 0
1 2 0
2 3 0
3 4 0
4 5 0
5 7 0
6 8 0
7 9 0
8 10 0
9 11 0
10 12 0
11 13 0
12 14 0
13 15 0
15 17 0
16 18 0
19 19 0
20 20 0
21 21 0
25 22 0
27 23 0
28 24 0
29 25 0
31 26 0
32 27 0
33 28 0
34 29 0
35 30 0
36 31 0
37 32 0
38 33 0
39 35 0
40 36 0
41 37 0
43 38 0
46 39 0
47 40 0
2 10 87 1000 47
0 1 0
2 2 0
3 3 0
4 4 0
5 6 0
6 7 0
7 8 0
8 9 0
9 10 0
10 11 0
11 12 0
12 13 0
13 14 0
14 16 0
15 17 0
16 18 0
17 19 0
18 20 0
19 21 0
20 22 0
21 23 0
22 24 0
23 25 0
24 26 0
25 27 0
26 28 0
27 29 0
28 30 0
29 31 0
30 32 0
31 33 0
32 34 0
33 35 0
34 36 0
35 37 0
36 38 0
37 39 0
38 40 0
39 42 0
40 43 0
41 44 0
42 45 0
43 46 0
44 47 0
45 48 0
46 49 0
47 50 0
2 10 29 1000 41
0 1 0
2 2 0
3 3 0
4 4 0
5 6 0
6 7 0
7 8 0
8 9 0
9 10 0
10 11 0
11 12 0
12 13 0
13 14 0
14 16 0
15 17 0
16 18 0
17 19 0
18 20 0
19 21 0
20 22 0
23 23 0
25 24 0
26 25 0
27 26 0
28 27 0
29 28 0
30 29 0
31 30 0
32 31 0
33 32 0
34 33 0
36 34 0
37 35 0
39 36 0
40 37 0
42 38 0
43 39 0
44 40 0
45 41 0
46 42 0
47 43 0
2 14 53 1000 32
1 0 0
2 1 0
4 2 0
6 3 0
7 4 0
8 5 0
9 6 0
10 9 0
11 11 0
12 12 0
13 13 0
14 14 0
16 15 0
17 17 0
19 18 0
20 19 0
21 20 0
23 21 0
25 22 0
26 23 0
27 24 0
28 25 0
29 26 0
30 28 0
32 30 0
33 31 0
34 32 0
35 33 0
36 34 0
37 35 0
38 36 0
40 39 0
2 18 75 1000 39
0 0 0
1 3 0
2 4 0
3 5 0
4 6 0
5 7 0
6 8 0
7 9 0
8 10 0
9 11 0
10 14 0
11 15 0
12 17 0
13 19 0
14 20 0
15 21 0
16 22 0
18 23 0
19 25 0
20 27 0
21 29 0
22 30 0
23 31 0
24 32 0
25 33 0
26 34 0
27 35 0
28 36 0
29 37 0
30 38 0
31 40 0
32 41 0
33 42 0
34 43 0
35 44 0
36 46 0
37 47 0
38 48 0
39 50 0
2 20 35 1000 47
0 0 0
1 1 0
2 2 0
3 3 0
4 4 0
6 5 0
7 6 0
8 8 0
11 9 0
12 10 0
13 11 0
14 12 0
15 13 0
16 14 0
17 15 0
18 16 0
19 17 0
20 18 0
21 19 0
22 20 0
23 21 0
24 22 0
25 23 0
26 24 0
27 25 0
28 26 0
29 27 0
30 28 0
31 29 0
32 30 0
33 31 0
34 32 0
35 33 0
36 34 0
37 35 0
39 36 0
40 37 0
41 38 0
42 39 0
43 40 0
44 41 0
45 42 0
46 43 0
47 44 0
48 45 0
49 46 0
50 47 0
2 24 77 1000 37
0 0 0
1 1 0
2 2 0
4 3 0
7 4 0
8 5 0
9 6 0
10 7 0
11 9 0
12 10 0
13 11 0
15 13 0
16 14 0
17 15 0
18 16 0
19 18 0
20 19 0
21 21 0
22 22 0
23 23 0
24 25 0
25 26 0
26 27 0
27 28 0
29 29 0
30 30 0
31 33 0
32 34 0
33 35 0
34 36 0
35 37 0
37 38 0
38 40 0
39 41 0
40 42 0
41 43 0
42 45 0
2 28 87 1000 47
0 0 0
1 1 0
3 2 0
4 3 0
5 4 0
6 5 0
7 6 0
8 7 0
9 8 0
10 9 0
11 10 0
12 12 0
13 13 0
14 14 0
15 15 0
16 16 0
17 17 0
18 18 0
19 19 0
20 20 0
21 21 0
22 22 0
23 23 0
24 24 0
25 25 0
26 26 0
27 27 0
28 28 0
29 29 0
30 31 0
31 32 0
32 33 0
33 34 0
34 37 0
35 38 0
36 39 0
37 40 0
38 41 0
39 42 0
40 43 0
41 44 0
42 45 0
43 46 0
44 47 0
45 48 0
46 49 0
47 50 0
2 54 89 1000 39
0 0 0
1 2 0
2 3 0
3 4 0
4 5 0
5 6 0
6 8 0
7 9 0
8 10 0
9 11 0
10 12 0
11 15 0
12 16 0
13 17 0
14 18 0
15 19 0
16 20 0
17 21 0
18 23 0
19 24 0
20 25 0
21 27 0
22 28 0
23 29 0
24 30 0
26 31 0
27 33 0
28 34 0
29 35 0
30 36 0
31 37 0
32 38 0
33 39 0
34 40 0
35 42 0
36 43 0
37 46 0
38 47 0
39 48 0
2 1 88 1000 42
1 1 0
2 2 0
3 3 0
4 4 0
5 5 0
6 6 0
7 7 0
8 9 0
9 10 0
10 11 0
11 13 0
12 14 0
13 16 0
14 17 0
15 18 0
16 19 0
17 20 0
18 21 0
20 22 0
21 23 0
22 24 0
23 25 0
25 26 0
26 27 0
27 28 0
28 31 0
29 32 0
30 33 0
31 34 0
32 35 0
33 36 0
34 37 0
35 38 0
36 39 0
37 40 0
38 41 0
39 43 0
40 44 0
41 45 0
42 46 0
43 47 0
44 48 0
2 11 70 1000 48
0 0 0
1 1 0
2 2 0
3 3 0
4 4 0
5 5 0
6 7 0
7 8 0
8 9 0
9 10 0
10 11 0
11 12 0
12 13 0
13 14 0
14 15 0
15 16 0
16 17 0
17 18 0
18 19 0
19 20 0
20 21 0
21 22 0
22 23 0
23 24 0
24 25 0
25 26 0
26 27 0
27 28 0
28 29 0
29 31 0
30 32 0
31 33 0
32 34 0
33 35 0
34 36 0
35 37 0
36 38 0
37 39 0
38 40 0
39 41 0
40 42 0
41 43 0
42 44 0
43 45 0
44 46 0
45 47 0
46 48 0
47 50 0
2 11 86 1000 48
0 0 0
1 1 0
2 2 0
3 3 0
4 4 0
5 5 0
6 7 0
7 8 0
8 9 0
9 10 0
10 11 0
11 12 0
12 13 0
13 14 0
14 15 0
15 16 0
16 17 0
17 18 0
18 19 0
19 20 0
20 21 0
21 22 0
22 23 0
23 24 0
24 25 0
25 26 0
26 27 0
27 28 0
28 29 0
29 31 0
30 32 0
31 33 0
32 34 0
33 35 0
34 36 0
35 37 0
36 38 0
37 39 0
38 40 0
39 41 0
40 42 0
41 43 0
42 44 0
43 45 0
44 46 0
45 47 0
46 48 0
47 50 0
2 11 28 1000 44
0 0 0
1 1 0
2 2 0
3 3 0
4 4 0
5 5 0
6 7 0
7 8 0
8 9 0
9 10 0
10 11 0
12 12 0
13 13 0
14 14 0
15 15 0
16 16 0
17 17 0
18 18 0
19 19 0
20 20 0
21 21 0
22 22 0
23 23 0
24 24 0
25 25 0
26 26 0
27 27 0
28 28 0
30 30 0
31 31 0
32 32 0
33 33 0
36 34 0
37 35 0
38 36 0
39 37 0
40 38 0
41 39 0
42 40 0
43 41 0
44 42 0
45 43 0
46 44 0
47 46 0
2 15 52 1000 47
0 0 0
1 1 0
2 2 0
3 3 0
4 4 0
5 5 0
6 6 0
7 7 0
8 8 0
9 9 0
10 10 0
11 11 0
12 12 0
13 13 0
14 14 0
15 15 0
16 16 0
17 17 0
18 18 0
19 19 0
20 20 0
21 21 0
22 22 0
23 23 0
24 24 0
25 25 0
26 27 0
27 29 0
28 30 0
29 31 0
30 32 0
31 33 0
32 34 0
33 35 0
34 36 0
35 37 0
36 38 0
38 40 0
39 41 0
40 42 0
41 43 0
42 44 0
43 45 0
44 47 0
45 48 0
46 49 0
47 50 0
2 19 74 1000 50
0 0 0
1 1 0
2 2 0
3 3 0
4 4 0
5 5 0
6 6 0
7 7 0
8 8 0
9 9 0
10 10 0
11 11 0
12 12 0
13 13 0
14 14 0
15 15 0
16 16 0
17 17 0
18 18 0
19 19 0
20 20 0
21 21 0
22 22 0
23 23 0
24 24 0
25 25 0
26 26 0
27 27 0
28 28 0
29 29 0
30 30 0
31 31 0
32 32 0
33 33 0
34 34 0
35 35 0
36 36 0
37 37 0
39 38 0
40 39 0
41 40 0
42 41 0
44 42 0
45 43 0
46 44 0
47 45 0
48 46 0
49 47 0
50 48 0
51 49 0
2 21 34 1000 38
0 0 0
1 1 0
3 2 0
4 3 0
5 4 0
7 6 0
8 7 0
10 8 0
12 9 0
13 10 0
14 11 0
16 12 0
18 13 0
19 14 0
20 15 0
22 16 0
23 18 0
24 20 0
25 21 0
26 22 0
27 23 0
28 24 0
29 25 0
30 26 0
31 27 0
32 28 0
33 29 0
34 30 0
35 31 0
37 32 0
38 33 0
39 34 0
40 35 0
41 36 0
42 38 0
43 39 0
45 40 0
46 41 0
2 25 76 1000 37
0 0 0
1 1 0
4 2 0
5 4 0
6 5 0
7 6 0
9 8 0
10 10 0
12 11 0
13 12 0
14 13 0
15 14 0
16 15 0
17 16 0
18 17 0
19 18 0
20 19 0
21 20 0
23 22 0
24 23 0
25 24 0
26 25 0
27 26 0
28 27 0
29 28 0
30 29 0
32 30 0
33 31 0
34 32 0
35 33 0
37 35 0
38 36 0
39 37 0
40 38 0
41 39 0
42 40 0
43 41 0
2 29 86 1000 44
0 0 0
1 1 0
2 3 0
3 4 0
4 5 0
5 6 0
6 7 0
7 8 0
8 9 0
9 10 0
10 11 0
11 12 0
12 13 0
13 14 0
14 15 0
15 16 0
16 17 0
17 18 0
18 19 0
19 20 0
20 21 0
21 22 0
22 23 0
23 26 0
24 28 0
25 29 0
26 30 0
27 31 0
28 32 0
29 33 0
30 34 0
31 35 0
32 36 0
33 37 0
34 39 0
35 40 0
36 43 0
37 44 0
38 46 0
39 47 0
40 48 0
41 49 0
42 50 0
43 51 0
2 55 88 1000 41
1 0 0
2 1 0
3 2 0
4 5 0
5 6 0
6 7 0
7 8 0
8 9 0
9 12 0
10 13 0
11 14 0
12 15 0
13 16 0
14 18 0
15 19 0
16 20 0
18 22 0
19 23 0
20 24 0
21 25 0
23 26 0
24 28 0
25 29 0
26 30 0
27 31 0
28 32 0
29 33 0
30 34 0
31 35 0
32 36 0
33 37 0
34 38 0
35 39 0
36 41 0
37 42 0
38 43 0
39 44 0
40 45 0
41 46 0
42 47 0
43 48 0
